p td 22 114
2 1
3 2
3 1
5 4
5 2
5 1
6 5
6 1
7 2
7 6
7 1
7 5
8 4
8 3
8 7
8 6
9 3
9 6
10 2
10 8
10 6
10 4
10 9
11 2
11 9
11 6
11 8
12 5
12 1
12 2
12 9
12 11
12 7
13 2
13 6
13 3
13 11
13 9
13 8
13 7
14 3
14 8
14 11
14 10
14 7
14 12
14 5
14 1
15 8
15 6
15 13
15 1
15 14
15 5
16 3
16 11
16 2
16 5
16 9
16 4
16 8
16 12
16 6
17 15
17 3
17 16
17 13
17 8
17 10
17 4
17 1
17 14
17 9
17 7
18 12
18 11
18 7
19 6
19 2
19 1
19 14
19 16
19 17
19 9
20 4
20 12
20 7
20 10
20 15
20 2
20 9
20 13
20 18
20 5
20 8
21 5
21 13
21 6
21 20
21 4
21 10
21 11
21 16
21 3
22 6
22 12
22 15
22 18
22 5
22 20
22 13
22 17
22 14
22 1
